\ SCIP STATISTICS
\   Problem name     : stein15inf
\   Variables        : 15 (15 binary, 0 integer, 0 implicit integer, 0 continuous)
\   Constraints      : 37
Minimize
 Obj: +1 ZZ14 +1 ZZ01 +1 ZZ02 +1 ZZ03 +1 ZZ04 +1 ZZ05 +1 ZZ06 +1 ZZ07 +1 ZZ08 +1 ZZ09 +1 ZZ10 +1 ZZ11
      +1 ZZ12 +1 ZZ13 +1 ZZ15
Subject to
 A1: +1 ZZ03 +1 ZZ04 +1 ZZ06 >= +1
 A2: +1 ZZ04 +1 ZZ05 +1 ZZ07 >= +1
 A3: +1 ZZ01 +1 ZZ05 +1 ZZ08 >= +1
 A4: +1 ZZ01 +1 ZZ02 +1 ZZ09 >= +1
 A5: +1 ZZ02 +1 ZZ03 +1 ZZ10 >= +1
 A6: +1 ZZ02 +1 ZZ05 +1 ZZ06 >= +1
 A7: +1 ZZ01 +1 ZZ03 +1 ZZ07 >= +1
 A8: +1 ZZ02 +1 ZZ04 +1 ZZ08 >= +1
 A9: +1 ZZ03 +1 ZZ05 +1 ZZ09 >= +1
 A10: +1 ZZ01 +1 ZZ04 +1 ZZ10 >= +1
 A11: +1 ZZ08 +1 ZZ09 +1 ZZ11 >= +1
 A12: +1 ZZ09 +1 ZZ10 +1 ZZ12 >= +1
 A13: +1 ZZ06 +1 ZZ10 +1 ZZ13 >= +1
 A14: +1 ZZ06 +1 ZZ07 +1 ZZ14 >= +1
 A15: +1 ZZ07 +1 ZZ08 +1 ZZ15 >= +1
 A16: +1 ZZ07 +1 ZZ10 +1 ZZ11 >= +1
 A17: +1 ZZ06 +1 ZZ08 +1 ZZ12 >= +1
 A18: +1 ZZ07 +1 ZZ09 +1 ZZ13 >= +1
 A19: +1 ZZ08 +1 ZZ10 +1 ZZ14 >= +1
 A20: +1 ZZ06 +1 ZZ09 +1 ZZ15 >= +1
 A21: +1 ZZ01 +1 ZZ13 +1 ZZ14 >= +1
 A22: +1 ZZ02 +1 ZZ14 +1 ZZ15 >= +1
 A23: +1 ZZ03 +1 ZZ11 +1 ZZ15 >= +1
 A24: +1 ZZ04 +1 ZZ11 +1 ZZ12 >= +1
 A25: +1 ZZ05 +1 ZZ12 +1 ZZ13 >= +1
 A26: +1 ZZ01 +1 ZZ12 +1 ZZ15 >= +1
 A27: +1 ZZ02 +1 ZZ11 +1 ZZ13 >= +1
 A28: +1 ZZ03 +1 ZZ12 +1 ZZ14 >= +1
 A29: +1 ZZ04 +1 ZZ13 +1 ZZ15 >= +1
 A30: +1 ZZ05 +1 ZZ11 +1 ZZ14 >= +1
 A31: +1 ZZ01 +1 ZZ06 +1 ZZ11 >= +1
 A32: +1 ZZ02 +1 ZZ07 +1 ZZ12 >= +1
 A33: +1 ZZ03 +1 ZZ08 +1 ZZ13 >= +1
 A34: +1 ZZ04 +1 ZZ09 +1 ZZ14 >= +1
 A35: +1 ZZ05 +1 ZZ10 +1 ZZ15 >= +1
 OB2: +1 ZZ01 +1 ZZ02 +1 ZZ03 +1 ZZ04 +1 ZZ05 +1 ZZ06 +1 ZZ07 +1 ZZ08 +1 ZZ09 +1 ZZ10 +1 ZZ11 +1 ZZ12
  +1 ZZ13 +1 ZZ14 +1 ZZ15 >= +7
 c37: +1 ZZ01 +1 ZZ02 +1 ZZ03 +1 ZZ04 +1 ZZ05 +1 ZZ06 +1 ZZ07 +1 ZZ08 +1 ZZ09 +1 ZZ10 +1 ZZ11 +1 ZZ12
  +1 ZZ13 +1 ZZ14 +1 ZZ15 <= +8
Bounds
 0 <= ZZ14 <= 1
 0 <= ZZ01 <= 1
 0 <= ZZ02 <= 1
 0 <= ZZ03 <= 1
 0 <= ZZ04 <= 1
 0 <= ZZ05 <= 1
 0 <= ZZ06 <= 1
 0 <= ZZ07 <= 1
 0 <= ZZ08 <= 1
 0 <= ZZ09 <= 1
 0 <= ZZ10 <= 1
 0 <= ZZ11 <= 1
 0 <= ZZ12 <= 1
 0 <= ZZ13 <= 1
 0 <= ZZ15 <= 1
Binaries
 ZZ14 ZZ01 ZZ02 ZZ03 ZZ04 ZZ05 ZZ06 ZZ07 ZZ08 ZZ09 ZZ10 ZZ11 ZZ12 ZZ13 ZZ15
End
